ASP/inputs/03_hard.lp
%%%%%%%%%%%%%%%%%%%%%%%%%%%%%%%
%   03.1
%%%%%%%%%%%%%%%%%%%%%%%%%%%%%%%
% #const max_t = 8.
% #const n = 7.
% m(1,1,1). m(1,2,0). m(1,3,1). m(1,4,0). m(1,5,1). m(1,6,0). m(1,7,1).
% m(2,1,1). m(2,2,1). m(2,3,0). m(2,4,1). m(2,5,1). m(2,6,1). m(2,7,0).
% m(3,1,1). m(3,2,0). m(3,3,0). m(3,4,0). m(3,5,0). m(3,6,1). m(3,7,0).
% m(4,1,0). m(4,2,1). m(4,3,0). m(4,4,1). m(4,5,0). m(4,6,0). m(4,7,1).
% m(5,1,0). m(5,2,0). m(5,3,1). m(5,4,0). m(5,5,1). m(5,6,0). m(5,7,1).
% m(6,1,0). m(6,2,0). m(6,3,1). m(6,4,0). m(6,5,1). m(6,6,1). m(6,7,0).
% m(7,1,1). m(7,2,0). m(7,3,1). m(7,4,1). m(7,5,0). m(7,6,0). m(7,7,0).

%%%%%%%%%%%%%%%%%%%%%%%%%%%%%%%
%   03.2
%%%%%%%%%%%%%%%%%%%%%%%%%%%%%%%
% #const max_t = 8.
% #const n = 6.
% m(1,1,0). m(1,2,1). m(1,3,1). m(1,4,1). m(1,5,1). m(1,6,1).
% m(2,1,0). m(2,2,0). m(2,3,1). m(2,4,1). m(2,5,0). m(2,6,0).
% m(3,1,1). m(3,2,1). m(3,3,1). m(3,4,0). m(3,5,0). m(3,6,0).
% m(4,1,1). m(4,2,1). m(4,3,0). m(4,4,0). m(4,5,1). m(4,6,1).
% m(5,1,0). m(5,2,1). m(5,3,1). m(5,4,1). m(5,5,1). m(5,6,0).
% m(6,1,0). m(6,2,0). m(6,3,0). m(6,4,0). m(6,5,1). m(6,6,1).

%%%%%%%%%%%%%%%%%%%%%%%%%%%%%%%
%   03.3
%%%%%%%%%%%%%%%%%%%%%%%%%%%%%%%
#const max_t = 12.
#const n = 8.
m(1,1,1). m(1,2,1). m(1,3,0). m(1,4,1). m(1,5,1). m(1,6,0). m(1,7,1). m(1,8,0).
m(2,1,1). m(2,2,0). m(2,3,0). m(2,4,0). m(2,5,1). m(2,6,1). m(2,7,0). m(2,8,1).
m(3,1,1). m(3,2,0). m(3,3,1). m(3,4,1). m(3,5,0). m(3,6,1). m(3,7,0). m(3,8,1).
m(4,1,0). m(4,2,0). m(4,3,1). m(4,4,0). m(4,5,1). m(4,6,1). m(4,7,1). m(4,8,0).
m(5,1,0). m(5,2,0). m(5,3,0). m(5,4,0). m(5,5,0). m(5,6,0). m(5,7,1). m(5,8,0).
m(6,1,0). m(6,2,0). m(6,3,0). m(6,4,1). m(6,5,0). m(6,6,1). m(6,7,1). m(6,8,1).
m(7,1,0). m(7,2,1). m(7,3,1). m(7,4,0). m(7,5,1). m(7,6,1). m(7,7,1). m(7,8,1).
m(8,1,1). m(8,2,1). m(8,3,1). m(8,4,1). m(8,5,1). m(8,6,0). m(8,7,1). m(8,8,1).

%%%%%%%%%%%%%%%%%%%%%%%%%%%%%%%
%   03.4
%%%%%%%%%%%%%%%%%%%%%%%%%%%%%%%
