Minizinc/inputs/03_hard.dzn
%%%%%%%%%%%%%%%%%%%%%%%%%%%%%%%
%   03.1
%   Steps:      
%   Time (V1):  
%   Time (V2):  
%%%%%%%%%%%%%%%%%%%%%%%%%%%%%%%
max_t = 8;
n = 7;
M = 
[| 1, 0, 1, 0, 1, 0, 1
 | 1, 1, 0, 1, 1, 1, 0
 | 1, 0, 0, 0, 0, 1, 0
 | 0, 1, 0, 1, 0, 0, 1
 | 0, 0, 1, 0, 1, 0, 1
 | 0, 0, 1, 0, 1, 1, 0
 | 1, 0, 1, 1, 0, 0, 0
 |];
 
%%%%%%%%%%%%%%%%%%%%%%%%%%%%%%%
%   03.2
%   Steps:      
%   Time (V1):  
%   Time (V2):  
%%%%%%%%%%%%%%%%%%%%%%%%%%%%%%%

%%%%%%%%%%%%%%%%%%%%%%%%%%%%%%%
%   03.3
%   Steps:      
%   Time (V1):  
%   Time (V2):  
%%%%%%%%%%%%%%%%%%%%%%%%%%%%%%%

%%%%%%%%%%%%%%%%%%%%%%%%%%%%%%%
%   03.4
%   Steps:      
%   Time (V1):  
%   Time (V2):  
%%%%%%%%%%%%%%%%%%%%%%%%%%%%%%%

%%%%%%%%%%%%%%%%%%%%%%%%%%%%%%%
%   03.5
%   Steps:      
%   Time (V1):  
%   Time (V2):  
%%%%%%%%%%%%%%%%%%%%%%%%%%%%%%%